Gurobi Optimizer version 9.0.1 build v9.0.1rc0 (linux64)
Optimize a model with 4284 rows, 1092610 columns and 11279748 nonzeros
Model fingerprint: 0x3eee73e8
Coefficient statistics:
  Matrix range     [1e+00, 1e+00]
  Objective range  [1e+00, 2e+00]
  Bounds range     [0e+00, 0e+00]
  RHS range        [1e+00, 1e+00]
Presolve removed 108 rows and 2073 columns (presolve time = 7s) ...
Presolve removed 108 rows and 2084 columns (presolve time = 11s) ...
Presolve removed 108 rows and 2084 columns
Presolve time: 10.91s
Presolved: 4176 rows, 1090526 columns, 11174639 nonzeros
Ordering time: 0.47s

Barrier statistics:
 AA' NZ     : 1.067e+06
 Factor NZ  : 5.486e+06 (roughly 500 MBytes of memory)
 Factor Ops : 1.044e+10 (less than 1 second per iteration)
 Threads    : 1

                  Objective                Residual
Iter       Primal          Dual         Primal    Dual     Compl     Time
   0   3.20002028e+06  2.00000000e+01  0.00e+00 0.00e+00  4.93e+00    18s
   1   1.94350695e+05 -2.75409565e+02  0.00e+00 4.71e-01  2.99e-01    20s
   2   3.56267451e+04 -1.46083222e+02  0.00e+00 2.28e-01  5.50e-02    23s
   3   1.53883601e+04  9.72795541e+00  0.00e+00 1.50e-01  2.28e-02    26s
   4   6.33442090e+03  4.77005733e+02  0.00e+00 3.31e-02  6.18e-03    29s
   5   3.36701258e+03  6.91233935e+02  0.00e+00 1.42e-02  2.58e-03    32s
   6   2.15888632e+03  8.20050571e+02  0.00e+00 7.25e-03  1.25e-03    36s
   7   1.69832637e+03  9.07150553e+02  0.00e+00 4.50e-03  7.25e-04    39s
   8   1.53009049e+03  9.55195033e+02  0.00e+00 3.20e-03  5.22e-04    42s
   9   1.38354787e+03  9.80865682e+02  0.00e+00 2.48e-03  3.64e-04    45s
  10   1.35278131e+03  9.94814258e+02  0.00e+00 2.13e-03  3.22e-04    48s
  11   1.32048164e+03  1.00122114e+03  0.00e+00 1.94e-03  2.87e-04    50s
  12   1.25363374e+03  1.01608436e+03  0.00e+00 1.51e-03  2.13e-04    53s
  13   1.21221008e+03  1.02755858e+03  0.00e+00 1.17e-03  1.65e-04    56s
  14   1.16426076e+03  1.03447983e+03  0.00e+00 9.32e-04  1.16e-04    59s
  15   1.13872695e+03  1.04044928e+03  0.00e+00 7.19e-04  8.75e-05    62s
  16   1.11802255e+03  1.04471752e+03  0.00e+00 5.63e-04  6.52e-05    65s
  17   1.10299291e+03  1.04595273e+03  0.00e+00 4.94e-04  5.09e-05    68s
  18   1.08381248e+03  1.04886304e+03  0.00e+00 3.57e-04  3.13e-05    71s
  19   1.07635862e+03  1.05012680e+03  0.00e+00 3.00e-04  2.36e-05    74s
  20   1.07185040e+03  1.05043263e+03  0.00e+00 2.78e-04  1.93e-05    77s
  21   1.06871941e+03  1.05204374e+03  0.00e+00 1.67e-04  1.49e-05    80s
  22   1.06241602e+03  1.05282681e+03  0.00e+00 1.09e-04  8.63e-06    84s
  23   1.05812614e+03  1.05331545e+03  0.00e+00 7.18e-05  4.37e-06    87s
  24   1.05633670e+03  1.05359506e+03  0.00e+00 4.67e-05  2.50e-06    90s
  25   1.05513532e+03  1.05378447e+03  0.00e+00 2.84e-05  1.25e-06    93s
  26   1.05473524e+03  1.05387689e+03  0.00e+00 1.86e-05  7.94e-07    95s
  27   1.05444238e+03  1.05394128e+03  0.00e+00 1.18e-05  4.66e-07    98s
  28   1.05436651e+03  1.05398362e+03  0.00e+00 7.41e-06  3.53e-07   101s
  29   1.05421915e+03  1.05399813e+03  0.00e+00 5.89e-06  2.07e-07   103s
  30   1.05416656e+03  1.05402270e+03  0.00e+00 3.31e-06  1.34e-07   106s
  31   1.05411471e+03  1.05403628e+03  0.00e+00 1.89e-06  7.32e-08   109s
  32   1.05408838e+03  1.05404391e+03  0.00e+00 1.10e-06  4.16e-08   111s
  33   1.05407486e+03  1.05404994e+03  0.00e+00 4.70e-07  2.30e-08   114s
  34   1.05406843e+03  1.05405109e+03  0.00e+00 3.50e-07  1.61e-08   117s
  35   1.05406635e+03  1.05405276e+03  0.00e+00 1.81e-07  1.24e-08   120s
  36   1.05405647e+03  1.05405355e+03  0.00e+00 9.93e-08  2.79e-09   123s
  37   1.05405534e+03  1.05405418e+03  0.00e+00 3.25e-08  1.10e-09   126s
  38   1.05405459e+03  1.05405449e+03  0.00e+00 4.79e-10  9.28e-11   129s
  39   1.05405450e+03  1.05405449e+03  4.79e-10 3.88e-12  3.57e-12   132s

Barrier solved model in 39 iterations and 131.53 seconds
Optimal objective 1.05405450e+03

Solver name: Gurobi
Solve time: 133.503356233
Termination status: OPTIMAL
Result count: 1
Primal status: FEASIBLE_POINT
Dual status: FEASIBLE_POINT
